10
1 0 3
2 0 3
2 1 4
3 0 3
3 1 3
3 2 3
4 0 3
4 1 4
4 2 2
4 3 5
5 0 3
5 1 4
5 2 5
5 3 1
5 4 5
6 0 4
6 1 5
6 2 3
6 3 3
6 4 4
6 5 2
7 0 1
7 1 4
7 2 3
7 3 4
7 4 2
7 5 3
7 6 2
8 0 1
8 1 1
8 2 1
8 3 2
8 4 4
8 5 1
8 6 5
8 7 1
9 0 2
9 1 4
9 2 5
9 3 2
9 4 5
9 5 4
9 6 3
9 7 3
9 8 2
